.Version 9.8.4 of ABINIT

 ABINIT is a project of the Universite Catholique de Louvain,
 Corning Inc. and other collaborators, see ~abinit/doc/developers/contributors.txt .
 acknowledgments of the ABINIT effort.

.Starting date : Thu  4 Apr 2024.
- ( at 09h41 )

- input  file    -> ebnd.abi
- output file    -> ebnd.abo
- root for input  files -> ebndi
- root for output files -> ./outdata/ebnd

 DATASET    1 : space group Fd -3 m (#227); Bravais cF (face-center cubic)
     intxc =       0    ionmov =       0      iscf =       7    lmnmax =       6
     lnmax =       6     mgfft =      24  mpssoang =       3    mqgrid =    3001
     natom =       2  nloc_mem =       1    nspden =       1   nspinor =       1
    nsppol =       1      nsym =      48    n1xccc =    2501    ntypat =       1
    occopt =       1   xclevel =       2
-    mband =           5        mffmem =           1         mkmem =          10
       mpw =         553          nfft =       13824          nkpt =          10
  Rough estimation (10% accuracy) of disk space for files :

 DATASET    2 : space group Fd -3 m (#227); Bravais cF (face-center cubic)
     intxc =       0    ionmov =       0      iscf =      -2    lmnmax =       6
     lnmax =       6     mgfft =      24  mpssoang =       3    mqgrid =    3001
     natom =       2  nloc_mem =       1    nspden =       1   nspinor =       1
    nsppol =       1      nsym =      48    n1xccc =    2501    ntypat =       1
    occopt =       1   xclevel =       2
-    mband =           8        mffmem =           1         mkmem =          99
       mpw =         560          nfft =       13824          nkpt =          99
  Rough estimation (10% accuracy) of disk space for files :

------------- Echo of variables that govern the present computation ------------
-
- outvars: echo of selected default values
-   iomode0 =  0 , fftalg0 =312 , wfoptalg0 =  0
-
- outvars: echo of global parameters not present in the input file
-  max_nthreads =    0
-
 -outvars: echo values of preprocessed input variables --------
            acell      1.0336000000E+01  1.0336000000E+01  1.0336000000E+01 Bohr
              amu      2.80855000E+01
           diemac1     1.20000000E+01
           diemac2     1.00000000E+06
             ecut      1.20000000E+01 Hartree
           enunit1          0
           enunit2          1
-          fftalg         312
           getden1          0
           getden2         -1
             iscf1          7
             iscf2         -2
           istwfk2       2    0    0    0    0    0    0    0    0    0
                         0    0    0    0    0    0    0    0    0    0
                         5    0    0    0    0    0    0    0    0    0
                         0    0    0    0    0    0    0    0    0    0
                         0    0    0    0    9    0    0    0    0    0
                       outvar_i_n : Printing only first  50 k-points.
              ixc          11
           jdtset        1    2
              kpt1    -1.25000000E-01 -2.50000000E-01  0.00000000E+00
                      -1.25000000E-01  5.00000000E-01  0.00000000E+00
                      -2.50000000E-01 -3.75000000E-01  0.00000000E+00
                      -1.25000000E-01 -3.75000000E-01  1.25000000E-01
                      -1.25000000E-01  2.50000000E-01  0.00000000E+00
                      -2.50000000E-01  3.75000000E-01  0.00000000E+00
                      -3.75000000E-01  5.00000000E-01  0.00000000E+00
                      -2.50000000E-01  5.00000000E-01  1.25000000E-01
                      -1.25000000E-01  0.00000000E+00  0.00000000E+00
                      -3.75000000E-01  0.00000000E+00  0.00000000E+00
              kpt2     0.00000000E+00  0.00000000E+00  0.00000000E+00
                       2.50000000E-02  0.00000000E+00  2.50000000E-02
                       5.00000000E-02  0.00000000E+00  5.00000000E-02
                       7.50000000E-02  0.00000000E+00  7.50000000E-02
                       1.00000000E-01  0.00000000E+00  1.00000000E-01
                       1.25000000E-01  0.00000000E+00  1.25000000E-01
                       1.50000000E-01  0.00000000E+00  1.50000000E-01
                       1.75000000E-01  0.00000000E+00  1.75000000E-01
                       2.00000000E-01  0.00000000E+00  2.00000000E-01
                       2.25000000E-01  0.00000000E+00  2.25000000E-01
                       2.50000000E-01  0.00000000E+00  2.50000000E-01
                       2.75000000E-01  0.00000000E+00  2.75000000E-01
                       3.00000000E-01  0.00000000E+00  3.00000000E-01
                       3.25000000E-01  0.00000000E+00  3.25000000E-01
                       3.50000000E-01  0.00000000E+00  3.50000000E-01
                       3.75000000E-01  0.00000000E+00  3.75000000E-01
                       4.00000000E-01  0.00000000E+00  4.00000000E-01
                       4.25000000E-01  0.00000000E+00  4.25000000E-01
                       4.50000000E-01  0.00000000E+00  4.50000000E-01
                       4.75000000E-01  0.00000000E+00  4.75000000E-01
                       5.00000000E-01  0.00000000E+00  5.00000000E-01
                       5.00000000E-01  2.50000000E-02  5.25000000E-01
                       5.00000000E-01  5.00000000E-02  5.50000000E-01
                       5.00000000E-01  7.50000000E-02  5.75000000E-01
                       5.00000000E-01  1.00000000E-01  6.00000000E-01
                       5.00000000E-01  1.25000000E-01  6.25000000E-01
                       5.00000000E-01  1.50000000E-01  6.50000000E-01
                       5.00000000E-01  1.75000000E-01  6.75000000E-01
                       5.00000000E-01  2.00000000E-01  7.00000000E-01
                       5.00000000E-01  2.25000000E-01  7.25000000E-01
                       5.00000000E-01  2.50000000E-01  7.50000000E-01
                       5.00000000E-01  2.67857143E-01  7.32142857E-01
                       5.00000000E-01  2.85714286E-01  7.14285714E-01
                       5.00000000E-01  3.03571429E-01  6.96428571E-01
                       5.00000000E-01  3.21428571E-01  6.78571429E-01
                       5.00000000E-01  3.39285714E-01  6.60714286E-01
                       5.00000000E-01  3.57142857E-01  6.42857143E-01
                       5.00000000E-01  3.75000000E-01  6.25000000E-01
                       5.00000000E-01  3.92857143E-01  6.07142857E-01
                       5.00000000E-01  4.10714286E-01  5.89285714E-01
                       5.00000000E-01  4.28571429E-01  5.71428571E-01
                       5.00000000E-01  4.46428571E-01  5.53571429E-01
                       5.00000000E-01  4.64285714E-01  5.35714286E-01
                       5.00000000E-01  4.82142857E-01  5.17857143E-01
                       5.00000000E-01  5.00000000E-01  5.00000000E-01
                       4.70588235E-01  4.70588235E-01  4.70588235E-01
                       4.41176471E-01  4.41176471E-01  4.41176471E-01
                       4.11764706E-01  4.11764706E-01  4.11764706E-01
                       3.82352941E-01  3.82352941E-01  3.82352941E-01
                       3.52941176E-01  3.52941176E-01  3.52941176E-01
                       outvar_i_n : Printing only first  50 k-points.
           kptopt1          1
           kptopt2         -6
         kptrlatt        4   -4    4     -4    4    4     -4   -4    4
          kptrlen1     4.13440000E+01
          kptrlen2     3.00000000E+01
P           mkmem1         10
P           mkmem2         99
            natom           2
            nband1          5
            nband2          8
           nbdbuf1          0
           nbdbuf2          2
           ndtset           2
           ndivsm1          0
           ndivsm2         10
            ngfft          24      24      24
             nkpt1         10
             nkpt2         99
            nstep1         20
            nstep2         30
             nsym          48
           ntypat           1
              occ      2.000000  2.000000  2.000000  2.000000  0.000000
            rprim      0.0000000000E+00  5.0000000000E-01  5.0000000000E-01
                       5.0000000000E-01  0.0000000000E+00  5.0000000000E-01
                       5.0000000000E-01  5.0000000000E-01  0.0000000000E+00
           shiftk      5.00000000E-01  5.00000000E-01  5.00000000E-01
          spgroup         227
           symrel      1  0  0   0  1  0   0  0  1      -1  0  0   0 -1  0   0  0 -1
                       0 -1  1   0 -1  0   1 -1  0       0  1 -1   0  1  0  -1  1  0
                      -1  0  0  -1  0  1  -1  1  0       1  0  0   1  0 -1   1 -1  0
                       0  1 -1   1  0 -1   0  0 -1       0 -1  1  -1  0  1   0  0  1
                      -1  0  0  -1  1  0  -1  0  1       1  0  0   1 -1  0   1  0 -1
                       0 -1  1   1 -1  0   0 -1  0       0  1 -1  -1  1  0   0  1  0
                       1  0  0   0  0  1   0  1  0      -1  0  0   0  0 -1   0 -1  0
                       0  1 -1   0  0 -1   1  0 -1       0 -1  1   0  0  1  -1  0  1
                      -1  0  1  -1  1  0  -1  0  0       1  0 -1   1 -1  0   1  0  0
                       0 -1  0   1 -1  0   0 -1  1       0  1  0  -1  1  0   0  1 -1
                       1  0 -1   0  0 -1   0  1 -1      -1  0  1   0  0  1   0 -1  1
                       0  1  0   0  0  1   1  0  0       0 -1  0   0  0 -1  -1  0  0
                       1  0 -1   0  1 -1   0  0 -1      -1  0  1   0 -1  1   0  0  1
                       0 -1  0   0 -1  1   1 -1  0       0  1  0   0  1 -1  -1  1  0
                      -1  0  1  -1  0  0  -1  1  0       1  0 -1   1  0  0   1 -1  0
                       0  1  0   1  0  0   0  0  1       0 -1  0  -1  0  0   0  0 -1
                       0  0 -1   0  1 -1   1  0 -1       0  0  1   0 -1  1  -1  0  1
                       1 -1  0   0 -1  1   0 -1  0      -1  1  0   0  1 -1   0  1  0
                       0  0  1   1  0  0   0  1  0       0  0 -1  -1  0  0   0 -1  0
                      -1  1  0  -1  0  0  -1  0  1       1 -1  0   1  0  0   1  0 -1
                       0  0  1   0  1  0   1  0  0       0  0 -1   0 -1  0  -1  0  0
                       1 -1  0   0 -1  0   0 -1  1      -1  1  0   0  1  0   0  1 -1
                       0  0 -1   1  0 -1   0  1 -1       0  0  1  -1  0  1   0 -1  1
                      -1  1  0  -1  0  1  -1  0  0       1 -1  0   1  0 -1   1  0  0
            tnons      0.0000000  0.0000000  0.0000000     0.2500000  0.2500000  0.2500000
                       0.0000000  0.0000000  0.0000000     0.2500000  0.2500000  0.2500000
                       0.0000000  0.0000000  0.0000000     0.2500000  0.2500000  0.2500000
                       0.0000000  0.0000000  0.0000000     0.2500000  0.2500000  0.2500000
                       0.0000000  0.0000000  0.0000000     0.2500000  0.2500000  0.2500000
                       0.0000000  0.0000000  0.0000000     0.2500000  0.2500000  0.2500000
                       0.0000000  0.0000000  0.0000000     0.2500000  0.2500000  0.2500000
                       0.0000000  0.0000000  0.0000000     0.2500000  0.2500000  0.2500000
[...]
  -5.38956   -1.59420    0.28311    2.68797    6.42189    9.23280    9.58809   10.41254
 kpt#  78, nband=  8, wtk=  1.00000, kpt=  0.2857  0.2857  0.5714 (reduced coord)
  -5.12645   -1.88612    0.10698    2.51694    6.23531    9.57271    9.92678   10.66045
 kpt#  79, nband=  8, wtk=  1.00000, kpt=  0.3036  0.3036  0.6071 (reduced coord)
  -4.86626   -2.15563   -0.02872    2.35134    6.05007    9.93222   10.25234   10.93644
 kpt#  80, nband=  8, wtk=  1.00000, kpt=  0.3214  0.3214  0.6429 (reduced coord)
  -4.61588   -2.40238   -0.11741    2.19362    5.87173   10.31100   10.32169   11.02744
 kpt#  81, nband=  8, wtk=  1.00000, kpt=  0.3393  0.3393  0.6786 (reduced coord)
  -4.38333   -2.62627   -0.15226    2.04575    5.70272    9.73051   10.70645   11.25315
 kpt#  82, nband=  8, wtk=  1.00000, kpt=  0.3571  0.3571  0.7143 (reduced coord)
  -4.17645   -2.82711   -0.12676    1.90958    5.54641    9.00682   11.11869   11.65998
 kpt#  83, nband=  8, wtk=  1.00000, kpt=  0.3750  0.3750  0.7500 (reduced coord)
  -4.00180   -3.00465   -0.03702    1.78662    5.40493    8.28578   11.54520   12.11269
 kpt#  84, nband=  8, wtk=  1.00000, kpt=  0.3828  0.3516  0.7344 (reduced coord)
  -4.06503   -2.93371   -0.07716    1.78442    5.54689    8.60449   11.15359   11.76520
 kpt#  85, nband=  8, wtk=  1.00000, kpt=  0.3906  0.3281  0.7188 (reduced coord)
  -4.11721   -2.86669   -0.09063    1.69200    5.84008    8.93253   10.62376   11.13666
 kpt#  86, nband=  8, wtk=  1.00000, kpt=  0.3984  0.3047  0.7031 (reduced coord)
  -4.15832   -2.80569   -0.07757    1.54345    6.25169    9.23329   10.12081   10.51024
 kpt#  87, nband=  8, wtk=  1.00000, kpt=  0.4063  0.2813  0.6875 (reduced coord)
  -4.18808   -2.75399   -0.03849    1.37300    6.74822    9.23807    9.89694    9.93477
 kpt#  88, nband=  8, wtk=  1.00000, kpt=  0.4141  0.2578  0.6719 (reduced coord)
  -4.20623   -2.71596    0.02572    1.20727    7.30119    8.79679    9.30678   10.22051
 kpt#  89, nband=  8, wtk=  1.00000, kpt=  0.4219  0.2344  0.6563 (reduced coord)
  -4.21243   -2.69648    0.11380    1.06532    7.86678    8.28060    8.77079   10.61038
 kpt#  90, nband=  8, wtk=  1.00000, kpt=  0.4297  0.2109  0.6406 (reduced coord)
  -4.20635   -2.70024    0.22400    0.96015    7.76637    8.01347    8.71367   11.03032
 kpt#  91, nband=  8, wtk=  1.00000, kpt=  0.4375  0.1875  0.6250 (reduced coord)
  -4.18769   -2.73028    0.35393    0.89939    7.26881    7.55398    9.31682   11.46697
 kpt#  92, nband=  8, wtk=  1.00000, kpt=  0.4453  0.1641  0.6094 (reduced coord)
  -4.15617   -2.78717    0.50048    0.88543    6.79603    7.06389   10.00279   11.91422
 kpt#  93, nband=  8, wtk=  1.00000, kpt=  0.4531  0.1406  0.5938 (reduced coord)
  -4.11168   -2.86870    0.65917    0.91538    6.35392    6.59723   10.71452   12.36294
 kpt#  94, nband=  8, wtk=  1.00000, kpt=  0.4609  0.1172  0.5781 (reduced coord)
  -4.05420   -2.97029    0.82407    0.98185    5.95008    6.16599   11.43904   12.80216
 kpt#  95, nband=  8, wtk=  1.00000, kpt=  0.4688  0.0938  0.5625 (reduced coord)
  -3.98396   -3.08630    0.98693    1.07356    5.59410    5.77878   12.16300   13.21012
 kpt#  96, nband=  8, wtk=  1.00000, kpt=  0.4766  0.0703  0.5469 (reduced coord)
  -3.90123   -3.21076    1.13667    1.17603    5.29846    5.44689   12.86769   13.56451
 kpt#  97, nband=  8, wtk=  1.00000, kpt=  0.4844  0.0469  0.5313 (reduced coord)
  -3.80671   -3.33845    1.25927    1.27178    5.07784    5.18311   13.50378   13.82558
 kpt#  98, nband=  8, wtk=  1.00000, kpt=  0.4922  0.0234  0.5156 (reduced coord)
  -3.70144   -3.46498    1.33991    1.34156    4.94850    5.00352   13.95060   14.00603
 kpt#  99, nband=  8, wtk=  1.00000, kpt=  0.5000  0.0000  0.5000 (reduced coord)
  -3.58685   -3.58685    1.36774    1.36774    4.92291    4.92291   14.08568   14.08628

== END DATASET(S) ==============================================================

 -outvars: echo values of variables after computation  --------
            acell      1.0336000000E+01  1.0336000000E+01  1.0336000000E+01 Bohr
              amu      2.80855000E+01
           diemac1     1.20000000E+01
           diemac2     1.00000000E+06
             ecut      1.20000000E+01 Hartree
           enunit1          0
           enunit2          1
           etotal1    -8.4621830122E+00
            fcart1     0.0000000000E+00  0.0000000000E+00  2.0840907300E-28
                       0.0000000000E+00  0.0000000000E+00 -2.0840907300E-28
-          fftalg         312
           getden1          0
           getden2         -1
             iscf1          7
             iscf2         -2
           istwfk2       2    0    0    0    0    0    0    0    0    0
                         0    0    0    0    0    0    0    0    0    0
                         5    0    0    0    0    0    0    0    0    0
                         0    0    0    0    0    0    0    0    0    0
                         0    0    0    0    9    0    0    0    0    0
                       outvar_i_n : Printing only first  50 k-points.
              ixc          11
           jdtset        1    2
              kpt1    -1.25000000E-01 -2.50000000E-01  0.00000000E+00
                      -1.25000000E-01  5.00000000E-01  0.00000000E+00
                      -2.50000000E-01 -3.75000000E-01  0.00000000E+00
                      -1.25000000E-01 -3.75000000E-01  1.25000000E-01
                      -1.25000000E-01  2.50000000E-01  0.00000000E+00
                      -2.50000000E-01  3.75000000E-01  0.00000000E+00
                      -3.75000000E-01  5.00000000E-01  0.00000000E+00
                      -2.50000000E-01  5.00000000E-01  1.25000000E-01
                      -1.25000000E-01  0.00000000E+00  0.00000000E+00
                      -3.75000000E-01  0.00000000E+00  0.00000000E+00
              kpt2     0.00000000E+00  0.00000000E+00  0.00000000E+00
                       2.50000000E-02  0.00000000E+00  2.50000000E-02
                       5.00000000E-02  0.00000000E+00  5.00000000E-02
                       7.50000000E-02  0.00000000E+00  7.50000000E-02
                       1.00000000E-01  0.00000000E+00  1.00000000E-01
                       1.25000000E-01  0.00000000E+00  1.25000000E-01
                       1.50000000E-01  0.00000000E+00  1.50000000E-01
                       1.75000000E-01  0.00000000E+00  1.75000000E-01
                       2.00000000E-01  0.00000000E+00  2.00000000E-01
                       2.25000000E-01  0.00000000E+00  2.25000000E-01
                       2.50000000E-01  0.00000000E+00  2.50000000E-01
                       2.75000000E-01  0.00000000E+00  2.75000000E-01
                       3.00000000E-01  0.00000000E+00  3.00000000E-01
                       3.25000000E-01  0.00000000E+00  3.25000000E-01
                       3.50000000E-01  0.00000000E+00  3.50000000E-01
                       3.75000000E-01  0.00000000E+00  3.75000000E-01
                       4.00000000E-01  0.00000000E+00  4.00000000E-01
                       4.25000000E-01  0.00000000E+00  4.25000000E-01
                       4.50000000E-01  0.00000000E+00  4.50000000E-01
                       4.75000000E-01  0.00000000E+00  4.75000000E-01
                       5.00000000E-01  0.00000000E+00  5.00000000E-01
                       5.00000000E-01  2.50000000E-02  5.25000000E-01
                       5.00000000E-01  5.00000000E-02  5.50000000E-01
                       5.00000000E-01  7.50000000E-02  5.75000000E-01
                       5.00000000E-01  1.00000000E-01  6.00000000E-01
                       5.00000000E-01  1.25000000E-01  6.25000000E-01
                       5.00000000E-01  1.50000000E-01  6.50000000E-01
                       5.00000000E-01  1.75000000E-01  6.75000000E-01
                       5.00000000E-01  2.00000000E-01  7.00000000E-01
                       5.00000000E-01  2.25000000E-01  7.25000000E-01
                       5.00000000E-01  2.50000000E-01  7.50000000E-01
                       5.00000000E-01  2.67857143E-01  7.32142857E-01
                       5.00000000E-01  2.85714286E-01  7.14285714E-01
                       5.00000000E-01  3.03571429E-01  6.96428571E-01
                       5.00000000E-01  3.21428571E-01  6.78571429E-01
                       5.00000000E-01  3.39285714E-01  6.60714286E-01
                       5.00000000E-01  3.57142857E-01  6.42857143E-01
                       5.00000000E-01  3.75000000E-01  6.25000000E-01
                       5.00000000E-01  3.92857143E-01  6.07142857E-01
                       5.00000000E-01  4.10714286E-01  5.89285714E-01
                       5.00000000E-01  4.28571429E-01  5.71428571E-01
                       5.00000000E-01  4.46428571E-01  5.53571429E-01
                       5.00000000E-01  4.64285714E-01  5.35714286E-01
                       5.00000000E-01  4.82142857E-01  5.17857143E-01
                       5.00000000E-01  5.00000000E-01  5.00000000E-01
                       4.70588235E-01  4.70588235E-01  4.70588235E-01
                       4.41176471E-01  4.41176471E-01  4.41176471E-01
                       4.11764706E-01  4.11764706E-01  4.11764706E-01
                       3.82352941E-01  3.82352941E-01  3.82352941E-01
                       3.52941176E-01  3.52941176E-01  3.52941176E-01
                       outvar_i_n : Printing only first  50 k-points.
           kptopt1          1
           kptopt2         -6
         kptrlatt        4   -4    4     -4    4    4     -4   -4    4
          kptrlen1     4.13440000E+01
          kptrlen2     3.00000000E+01
P           mkmem1         10
P           mkmem2         99
            natom           2
            nband1          5
            nband2          8
           nbdbuf1          0
           nbdbuf2          2
           ndtset           2
           ndivsm1          0
           ndivsm2         10
            ngfft          24      24      24
             nkpt1         10
             nkpt2         99
            nstep1         20
            nstep2         30
             nsym          48
           ntypat           1
              occ      2.000000  2.000000  2.000000  2.000000  0.000000
            rprim      0.0000000000E+00  5.0000000000E-01  5.0000000000E-01
                       5.0000000000E-01  0.0000000000E+00  5.0000000000E-01
                       5.0000000000E-01  5.0000000000E-01  0.0000000000E+00
           shiftk      5.00000000E-01  5.00000000E-01  5.00000000E-01
          spgroup         227
           strten1     2.8263974754E-06  2.8263974754E-06  2.8263974754E-06
                       0.0000000000E+00  0.0000000000E+00  0.0000000000E+00
           symrel      1  0  0   0  1  0   0  0  1      -1  0  0   0 -1  0   0  0 -1
                       0 -1  1   0 -1  0   1 -1  0       0  1 -1   0  1  0  -1  1  0
                      -1  0  0  -1  0  1  -1  1  0       1  0  0   1  0 -1   1 -1  0
                       0  1 -1   1  0 -1   0  0 -1       0 -1  1  -1  0  1   0  0  1
                      -1  0  0  -1  1  0  -1  0  1       1  0  0   1 -1  0   1  0 -1
                       0 -1  1   1 -1  0   0 -1  0       0  1 -1  -1  1  0   0  1  0
                       1  0  0   0  0  1   0  1  0      -1  0  0   0  0 -1   0 -1  0
                       0  1 -1   0  0 -1   1  0 -1       0 -1  1   0  0  1  -1  0  1
                      -1  0  1  -1  1  0  -1  0  0       1  0 -1   1 -1  0   1  0  0
                       0 -1  0   1 -1  0   0 -1  1       0  1  0  -1  1  0   0  1 -1
                       1  0 -1   0  0 -1   0  1 -1      -1  0  1   0  0  1   0 -1  1
                       0  1  0   0  0  1   1  0  0       0 -1  0   0  0 -1  -1  0  0
                       1  0 -1   0  1 -1   0  0 -1      -1  0  1   0 -1  1   0  0  1
                       0 -1  0   0 -1  1   1 -1  0       0  1  0   0  1 -1  -1  1  0
                      -1  0  1  -1  0  0  -1  1  0       1  0 -1   1  0  0   1 -1  0
                       0  1  0   1  0  0   0  0  1       0 -1  0  -1  0  0   0  0 -1
                       0  0 -1   0  1 -1   1  0 -1       0  0  1   0 -1  1  -1  0  1
                       1 -1  0   0 -1  1   0 -1  0      -1  1  0   0  1 -1   0  1  0
                       0  0  1   1  0  0   0  1  0       0  0 -1  -1  0  0   0 -1  0
                      -1  1  0  -1  0  0  -1  0  1       1 -1  0   1  0  0   1  0 -1
                       0  0  1   0  1  0   1  0  0       0  0 -1   0 -1  0  -1  0  0
                       1 -1  0   0 -1  0   0 -1  1      -1  1  0   0  1  0   0  1 -1
                       0  0 -1   1  0 -1   0  1 -1       0  0  1  -1  0  1   0 -1  1
                      -1  1  0  -1  0  1  -1  0  0       1 -1  0   1  0 -1   1  0  0
            tnons      0.0000000  0.0000000  0.0000000     0.2500000  0.2500000  0.2500000
                       0.0000000  0.0000000  0.0000000     0.2500000  0.2500000  0.2500000
                       0.0000000  0.0000000  0.0000000     0.2500000  0.2500000  0.2500000
                       0.0000000  0.0000000  0.0000000     0.2500000  0.2500000  0.2500000
                       0.0000000  0.0000000  0.0000000     0.2500000  0.2500000  0.2500000
                       0.0000000  0.0000000  0.0000000     0.2500000  0.2500000  0.2500000
                       0.0000000  0.0000000  0.0000000     0.2500000  0.2500000  0.2500000
                       0.0000000  0.0000000  0.0000000     0.2500000  0.2500000  0.2500000
                       0.0000000  0.0000000  0.0000000     0.2500000  0.2500000  0.2500000
                       0.0000000  0.0000000  0.0000000     0.2500000  0.2500000  0.2500000
                       0.0000000  0.0000000  0.0000000     0.2500000  0.2500000  0.2500000
                       0.0000000  0.0000000  0.0000000     0.2500000  0.2500000  0.2500000
                       0.0000000  0.0000000  0.0000000     0.2500000  0.2500000  0.2500000
                       0.0000000  0.0000000  0.0000000     0.2500000  0.2500000  0.2500000
                       0.0000000  0.0000000  0.0000000     0.2500000  0.2500000  0.2500000
                       0.0000000  0.0000000  0.0000000     0.2500000  0.2500000  0.2500000
                       0.0000000  0.0000000  0.0000000     0.2500000  0.2500000  0.2500000
                       0.0000000  0.0000000  0.0000000     0.2500000  0.2500000  0.2500000
                       0.0000000  0.0000000  0.0000000     0.2500000  0.2500000  0.2500000
                       0.0000000  0.0000000  0.0000000     0.2500000  0.2500000  0.2500000
                       0.0000000  0.0000000  0.0000000     0.2500000  0.2500000  0.2500000
                       0.0000000  0.0000000  0.0000000     0.2500000  0.2500000  0.2500000
                       0.0000000  0.0000000  0.0000000     0.2500000  0.2500000  0.2500000
                       0.0000000  0.0000000  0.0000000     0.2500000  0.2500000  0.2500000
           toldfe1     1.00000000E-06 Hartree
           toldfe2     0.00000000E+00 Hartree
           tolwfr1     0.00000000E+00
           tolwfr2     1.00000000E-12
            typat      1  1
              wtk1       0.09375    0.09375    0.09375    0.18750    0.09375    0.09375
                         0.09375    0.18750    0.03125    0.03125
              wtk2       1.00000    1.00000    1.00000    1.00000    1.00000    1.00000
                         1.00000    1.00000    1.00000    1.00000    1.00000    1.00000
                         1.00000    1.00000    1.00000    1.00000    1.00000    1.00000
                         1.00000    1.00000    1.00000    1.00000    1.00000    1.00000
                         1.00000    1.00000    1.00000    1.00000    1.00000    1.00000
                         1.00000    1.00000    1.00000    1.00000    1.00000    1.00000
                         1.00000    1.00000    1.00000    1.00000    1.00000    1.00000
                         1.00000    1.00000    1.00000    1.00000    1.00000    1.00000
                         1.00000    1.00000
                       outvars : Printing only first  50 k-points.
           xangst      0.0000000000E+00  0.0000000000E+00  0.0000000000E+00
                       1.3673939070E+00  1.3673939070E+00  1.3673939070E+00
            xcart      0.0000000000E+00  0.0000000000E+00  0.0000000000E+00
                       2.5840000000E+00  2.5840000000E+00  2.5840000000E+00
             xred      0.0000000000E+00  0.0000000000E+00  0.0000000000E+00
                       2.5000000000E-01  2.5000000000E-01  2.5000000000E-01
            znucl       14.00000

- Timing analysis has been suppressed with timopt=0

 Suggested references for the acknowledgment of ABINIT usage.

 Calculation completed.
.Delivered   2 WARNINGs and   5 COMMENTs to log file.